
Gurobi 12.0.1 (win64, C++) logging started Thu Apr 17 22:37:45 2025

Set parameter TokenServer to value "141.76.38.119"
Set parameter Threads to value 8
Set parameter LazyConstraints to value 1
Set parameter PreCrush to value 1
Set parameter Seed to value 0
Set parameter Cuts to value -1
Set parameter TimeLimit to value 28800
Set parameter NumericFocus to value 0
Set parameter SolutionLimit to value 10000
Gurobi Optimizer version 12.0.1 build v12.0.1rc0 (win64 - Windows Server 2022.0 (20348.2))

CPU model: AMD EPYC 7513 32-Core Processor, instruction set [SSE2|AVX|AVX2]
Thread count: 16 physical cores, 16 logical processors, using up to 8 threads

Non-default parameters:
SolutionLimit  10000
TimeLimit  28800
PreCrush  1
Threads  8
LazyConstraints  1

Optimize a model with 352 rows, 676 columns and 1950 nonzeros
Model fingerprint: 0x2532d697
Variable types: 0 continuous, 676 integer (676 binary)
Coefficient statistics:
  Matrix range     [1e+00, 1e+00]
  Objective range  [5e+00, 9e+01]
  Bounds range     [1e+00, 1e+00]
  RHS range        [1e+00, 8e+00]

User MIP start produced solution with objective 740.441 (0.03s)
Loaded user MIP start with objective 740.441

Presolve removed 43 rows and 107 columns
Presolve time: 0.01s
Presolved: 309 rows, 569 columns, 1629 nonzeros
Variable types: 0 continuous, 569 integer (569 binary)

Root relaxation: objective 4.668467e+02, 94 iterations, 0.00 seconds (0.00 work units)

    Nodes    |    Current Node    |     Objective Bounds      |     Work
 Expl Unexpl |  Obj  Depth IntInf | Incumbent    BestBd   Gap | It/Node Time

     0     0  466.84671    0    -  740.44125  466.84671  37.0%     -    0s
     0     0  492.83241    0   18  740.44125  492.83241  33.4%     -    0s
     0     0  500.64180    0    -  740.44125  500.64180  32.4%     -    0s
H    0     0                     709.7820471  543.53916  23.4%     -    0s
     0     0  543.53916    0   30  709.78205  543.53916  23.4%     -    0s
     0     0  544.28734    0   11  709.78205  544.28734  23.3%     -    0s
     0     0  574.98899    0   53  709.78205  574.98899  19.0%     -    0s
     0     0  581.25340    0   38  709.78205  581.25340  18.1%     -    0s
     0     0  584.91054    0   59  709.78205  584.91054  17.6%     -    0s
     0     0  592.18035    0   56  709.78205  592.18035  16.6%     -    0s
     0     2  592.18035    0   56  709.78205  592.18035  16.6%     -    0s
    62    70  607.86380    9   88  709.78205  602.00062  15.2%   120    5s
   144   154  610.46705   16   87  709.78205  602.00062  15.2%  86.9   10s
   792   841  650.75616   49   54  709.78205  602.00062  15.2%  41.7   15s
H  805   807                     684.6226570  602.00062  12.1%  41.3   15s
H 1002   698                     663.3016170  602.00062  9.24%  39.8   16s
  1610  1236  652.52842    7   56  663.30162  607.35244  8.43%  40.0   25s
  1618  1241  635.95825   36  973  663.30162  610.28756  7.99%  39.8   30s
  1626  1247  651.18906  101  992  663.30162  610.62592  7.94%  39.6   35s
H 1797  1359                     659.3263568  611.58581  7.24%  46.3   38s
H 1882  1345                     650.0005558  611.58581  5.91%  48.7   39s
* 2082  1344              45     644.4025972  611.69246  5.08%  51.3   40s
H 2092  1292                     634.0001553  611.69246  3.52%  51.3   40s
* 2188  1263              27     630.1275730  613.03247  2.71%  52.0   40s
  4041   815     cutoff   24       630.12757  619.86407  1.63%  53.6   45s

Cutting planes:
  Gomory: 8
  Cover: 1
  Clique: 6
  MIR: 2
  Flow cover: 4
  GUB cover: 1
  Zero half: 7
  Lazy constraints: 260

Explored 6841 nodes (349963 simplex iterations) in 48.97 seconds (42.50 work units)
Thread count was 8 (of 16 available processors)

Solution count 9: 630.128 634 644.403 ... 740.441

Optimal solution found (tolerance 1.00e-04)
Best objective 6.301275729831e+02, best bound 6.301275729831e+02, gap 0.0000%

User-callback calls 15168, time in user-callback 13.43 sec
### START EXACT APPROACH ###
ProblemVariant: 3
### START PREPROCESSING ###
## Start infeasible path procedure ## 
Deleted arcs: 81
Infeasible tail paths: 0
Infeasible 2-node combinations: 39
## Start extended infeasible path procedure ##
Deleted arcs: 81
Infeasible tail paths: 0
Infeasible 2-node combinations: 39
## Start start solution procedure ##
Start solution with 8 Vehicles and total costs 740.441 in 12.1489 s.
### END PREPROCESSING ###
Route 0 0-3-0 : weight util 0.854167 | volume util 0.046200 | feasible with packing heuristic | feasible with CP model
Route 1 0-10-25-4-2-0 : weight util 0.979167 | volume util 0.547733 | feasible with packing heuristic | feasible with CP model
Route 2 0-12-11-8-9-0 : weight util 1.000000 | volume util 0.538333 | feasible with packing heuristic | feasible with CP model
Route 3 0-16-13-7-1-0 : weight util 1.000000 | volume util 0.578311 | feasible with packing heuristic | feasible with CP model
Route 4 0-17-5-14-0 : weight util 0.958333 | volume util 0.606222 | feasible with packing heuristic | feasible with CP model
Route 5 0-19-15-0 : weight util 0.937500 | volume util 0.334400 | feasible with packing heuristic | feasible with CP model
Route 6 0-21-20-6-23-0 : weight util 0.958333 | volume util 0.536889 | feasible with packing heuristic | feasible with CP model
Route 7 0-24-18-22-0 : weight util 0.958333 | volume util 0.426689 | feasible with packing heuristic | feasible with CP model
